File : Instances/p56
Used 69s
23360

0 1 1 0 1 0 1 1 1 1 1 0 1 0 1 1 1 0 1 0 0 1 0 0 0 1 0 1 1 0 
18 6 21 27 21 12 15 27 18 28 4 28 10 1 28 18 1 8 16 27 18 16 2 21 10 18 27 14 4 2 6 6 4 16 27 6 9 8 16 16 18 9 6 4 8 9 8 21 6 14 27 16 21 16 8 6 25 9 18 7 4 2 7 8 8 25 2 14 28 25 18 12 6 9 10 1 14 10 8 16 10 2 9 25 4 8 6 2 27 7 28 6 25 25 2 1 28 6 2 28 28 15 25 18 4 27 4 16 18 1 14 4 18 12 12 8 28 7 14 8 9 25 28 6 9 16 21 12 4 14 28 21 25 10 1 9 1 1 28 14 12 27 12 25 25 2 16 15 27 25 16 14 10 28 8 12 2 15 8 1 1 27 10 16 2 27 1 4 1 21 1 8 28 14 9 2 27 14 4 10 2 21 21 6 12 8 28 10 27 21 2 21 6 4 7 12 7 15 10 6 
